
Gurobi 8.1.1 (linux64, Python) logging started Mon Apr 29 01:11:39 2019

Academic license - for non-commercial use only
Optimize a model with 4 rows, 12 columns and 39 nonzeros
Coefficient statistics:
  Matrix range     [1e+00, 2e+03]
  Objective range  [9e-01, 3e+00]
  Bounds range     [6e+01, 2e+03]
  RHS range        [6e+01, 2e+03]
Presolve removed 0 rows and 2 columns
Presolve time: 0.00s
Presolved: 4 rows, 10 columns, 37 nonzeros

Iteration    Objective       Primal Inf.    Dual Inf.      Time
       0    0.0000000e+00   1.472500e+02   0.000000e+00      0s
       4    1.1828861e+01   0.000000e+00   0.000000e+00      0s

Solved in 4 iterations and 0.00 seconds
Optimal objective  1.182886111e+01
Optimize a model with 5 rows, 12 columns and 41 nonzeros
Coefficient statistics:
  Matrix range     [1e+00, 2e+03]
  Objective range  [9e-01, 3e+00]
  Bounds range     [6e+01, 2e+03]
  RHS range        [6e+00, 2e+03]
Iteration    Objective       Primal Inf.    Dual Inf.      Time
       0    1.1828861e+01   5.698333e+01   0.000000e+00      0s

Solved in 0 iterations and 0.00 seconds
Infeasible model

Gurobi 8.1.1 (linux64, Python) logging started Tue Apr 30 22:18:42 2019

Academic license - for non-commercial use only

Gurobi 8.1.1 (linux64, Python) logging started Wed 01 May 2019 06:28:17 PM EDT

Academic license - for non-commercial use only
Optimize a model with 24 rows, 7 columns and 14 nonzeros
Coefficient statistics:
  Matrix range     [5e-02, 1e+00]
  Objective range  [1e+00, 1e+00]
  Bounds range     [1e+00, 1e+00]
  RHS range        [1e+00, 1e+01]
Presolve time: 0.14s

Solved in 0 iterations and 0.15 seconds
Infeasible or unbounded model
Optimize a model with 24 rows, 7 columns and 14 nonzeros
Coefficient statistics:
  Matrix range     [5e-02, 1e+00]
  Objective range  [1e+00, 1e+00]
  Bounds range     [1e+00, 1e+00]
  RHS range        [1e+00, 1e+01]
Presolve time: 0.06s

Solved in 0 iterations and 0.07 seconds
Infeasible or unbounded model
Optimize a model with 9 rows, 7 columns and 14 nonzeros
Coefficient statistics:
  Matrix range     [5e-02, 1e+00]
  Objective range  [1e+00, 1e+00]
  Bounds range     [1e+00, 1e+00]
  RHS range        [1e+00, 1e+01]
Presolve removed 0 rows and 4 columns
Presolve time: 0.19s

Solved in 0 iterations and 0.20 seconds
Infeasible or unbounded model
Optimize a model with 9 rows, 7 columns and 14 nonzeros
Coefficient statistics:
  Matrix range     [5e-02, 1e+00]
  Objective range  [1e+00, 1e+00]
  Bounds range     [1e+00, 1e+00]
  RHS range        [1e+00, 1e+01]
Presolve removed 0 rows and 4 columns
Presolve time: 0.10s

Solved in 0 iterations and 0.11 seconds
Infeasible or unbounded model
Optimize a model with 9 rows, 7 columns and 14 nonzeros
Coefficient statistics:
  Matrix range     [5e-02, 1e+00]
  Objective range  [1e+00, 1e+00]
  Bounds range     [0e+00, 0e+00]
  RHS range        [1e+00, 1e+01]
Presolve removed 0 rows and 4 columns
Presolve time: 0.15s

Solved in 0 iterations and 0.16 seconds
Infeasible or unbounded model
Optimize a model with 9 rows, 7 columns and 18 nonzeros
Coefficient statistics:
  Matrix range     [5e-02, 1e+01]
  Objective range  [1e+00, 1e+00]
  Bounds range     [0e+00, 0e+00]
  RHS range        [1e+00, 1e+00]
Presolve removed 9 rows and 7 columns
Presolve time: 0.07s
Presolve: All rows and columns removed
Iteration    Objective       Primal Inf.    Dual Inf.      Time
       0   -0.0000000e+00   0.000000e+00   0.000000e+00      0s

Solved in 0 iterations and 0.11 seconds
Optimal objective -0.000000000e+00
Optimize a model with 9 rows, 7 columns and 18 nonzeros
Coefficient statistics:
  Matrix range     [5e-02, 1e+01]
  Objective range  [1e+00, 1e+00]
  Bounds range     [0e+00, 0e+00]
  RHS range        [1e+00, 1e+00]
Presolve removed 9 rows and 7 columns
Presolve time: 0.07s
Presolve: All rows and columns removed
Iteration    Objective       Primal Inf.    Dual Inf.      Time
       0   -0.0000000e+00   0.000000e+00   0.000000e+00      0s

Solved in 0 iterations and 0.11 seconds
Optimal objective -0.000000000e+00
Optimize a model with 9 rows, 7 columns and 18 nonzeros
Coefficient statistics:
  Matrix range     [5e-02, 1e+01]
  Objective range  [1e+00, 1e+00]
  Bounds range     [0e+00, 0e+00]
  RHS range        [1e+00, 1e+00]
Presolve removed 9 rows and 7 columns
Presolve time: 0.29s
Presolve: All rows and columns removed
Iteration    Objective       Primal Inf.    Dual Inf.      Time
       0   -0.0000000e+00   0.000000e+00   0.000000e+00      1s

Solved in 0 iterations and 0.57 seconds
Optimal objective -0.000000000e+00
Optimize a model with 9 rows, 7 columns and 16 nonzeros
Coefficient statistics:
  Matrix range     [5e-02, 1e+00]
  Objective range  [1e+00, 1e+00]
  Bounds range     [0e+00, 0e+00]
  RHS range        [1e+00, 1e+00]
Presolve removed 7 rows and 7 columns
Presolve time: 0.07s

Solved in 0 iterations and 0.08 seconds
Infeasible or unbounded model
Optimize a model with 9 rows, 7 columns and 16 nonzeros
Coefficient statistics:
  Matrix range     [5e-02, 1e+00]
  Objective range  [2e+01, 2e+01]
  Bounds range     [0e+00, 0e+00]
  RHS range        [1e+00, 1e+00]
Presolve removed 7 rows and 5 columns
Presolve time: 0.32s
Presolved: 2 rows, 2 columns, 4 nonzeros

Iteration    Objective       Primal Inf.    Dual Inf.      Time
       0    2.9268293e+01   1.924829e+00   0.000000e+00      0s
       1    1.1881188e+01   0.000000e+00   0.000000e+00      1s

Solved in 1 iterations and 0.52 seconds
Optimal objective  1.188118812e+01
Optimize a model with 9 rows, 7 columns and 16 nonzeros
Coefficient statistics:
  Matrix range     [5e-02, 1e+00]
  Objective range  [2e+01, 2e+01]
  Bounds range     [0e+00, 0e+00]
  RHS range        [1e+00, 1e+00]
Presolve removed 7 rows and 5 columns
Presolve time: 0.20s
Presolved: 2 rows, 2 columns, 4 nonzeros

Iteration    Objective       Primal Inf.    Dual Inf.      Time
       0    2.9268293e+01   1.924829e+00   0.000000e+00      0s
       1    1.1881188e+01   0.000000e+00   0.000000e+00      0s

Solved in 1 iterations and 0.38 seconds
Optimal objective  1.188118812e+01
Optimize a model with 9 rows, 7 columns and 16 nonzeros
Coefficient statistics:
  Matrix range     [5e-02, 1e+00]
  Objective range  [2e+01, 2e+01]
  Bounds range     [0e+00, 0e+00]
  RHS range        [1e+00, 1e+00]
Presolve removed 7 rows and 5 columns
Presolve time: 0.07s
Presolved: 2 rows, 2 columns, 4 nonzeros

Iteration    Objective       Primal Inf.    Dual Inf.      Time
       0    2.9268293e+01   1.924829e+00   0.000000e+00      0s
       1    1.1881188e+01   0.000000e+00   0.000000e+00      0s

Solved in 1 iterations and 0.14 seconds
Optimal objective  1.188118812e+01
Optimize a model with 9 rows, 7 columns and 16 nonzeros
Coefficient statistics:
  Matrix range     [5e-02, 1e+00]
  Objective range  [2e+01, 2e+01]
  Bounds range     [0e+00, 0e+00]
  RHS range        [1e+00, 1e+00]
Presolve removed 7 rows and 5 columns
Presolve time: 0.07s
Presolved: 2 rows, 2 columns, 4 nonzeros

Iteration    Objective       Primal Inf.    Dual Inf.      Time
       0    2.9268293e+01   1.924829e+00   0.000000e+00      0s
       1    1.1881188e+01   0.000000e+00   0.000000e+00      0s

Solved in 1 iterations and 0.14 seconds
Optimal objective  1.188118812e+01
Optimize a model with 9 rows, 7 columns and 16 nonzeros
Coefficient statistics:
  Matrix range     [5e-02, 1e+00]
  Objective range  [2e+01, 2e+01]
  Bounds range     [0e+00, 0e+00]
  RHS range        [1e+00, 1e+00]
Presolve removed 7 rows and 5 columns
Presolve time: 0.07s
Presolved: 2 rows, 2 columns, 4 nonzeros

Iteration    Objective       Primal Inf.    Dual Inf.      Time
       0    2.9268293e+01   1.924829e+00   0.000000e+00      0s
       1    1.1881188e+01   0.000000e+00   0.000000e+00      0s

Solved in 1 iterations and 0.13 seconds
Optimal objective  1.188118812e+01
Optimize a model with 9 rows, 7 columns and 16 nonzeros
Coefficient statistics:
  Matrix range     [5e-02, 1e+00]
  Objective range  [2e+01, 2e+01]
  Bounds range     [0e+00, 0e+00]
  RHS range        [3e-01, 3e-01]
Presolve removed 7 rows and 5 columns
Presolve time: 0.07s
Presolved: 2 rows, 2 columns, 4 nonzeros

Iteration    Objective       Primal Inf.    Dual Inf.      Time
       0    9.7560976e+00   6.409431e-01   0.000000e+00      0s
       1    3.9603960e+00   0.000000e+00   0.000000e+00      0s

Solved in 1 iterations and 0.13 seconds
Optimal objective  3.960396040e+00
Optimize a model with 9 rows, 11 columns and 20 nonzeros
Coefficient statistics:
  Matrix range     [5e-02, 1e+00]
  Objective range  [5e+00, 2e+01]
  Bounds range     [0e+00, 0e+00]
  RHS range        [1e+00, 1e+00]
Presolve removed 6 rows and 4 columns
Presolve time: 0.07s

Solved in 0 iterations and 0.08 seconds
Infeasible or unbounded model
Optimize a model with 9 rows, 11 columns and 20 nonzeros
Coefficient statistics:
  Matrix range     [5e-02, 1e+00]
  Objective range  [5e+00, 2e+01]
  Bounds range     [0e+00, 0e+00]
  RHS range        [1e+00, 1e+00]
Presolve removed 6 rows and 4 columns
Presolve time: 0.07s

Solved in 0 iterations and 0.08 seconds
Infeasible or unbounded model
Optimize a model with 9 rows, 11 columns and 20 nonzeros
Coefficient statistics:
  Matrix range     [5e-02, 1e+00]
  Objective range  [5e+00, 3e+01]
  Bounds range     [0e+00, 0e+00]
  RHS range        [1e+00, 1e+00]
Presolve removed 6 rows and 4 columns
Presolve time: 0.07s

Solved in 0 iterations and 0.08 seconds
Infeasible or unbounded model
Optimize a model with 9 rows, 11 columns and 20 nonzeros
Coefficient statistics:
  Matrix range     [5e-02, 1e+00]
  Objective range  [2e+01, 5e+01]
  Bounds range     [0e+00, 0e+00]
  RHS range        [1e+00, 1e+00]
Presolve removed 2 rows and 2 columns
Presolve time: 0.07s

Solved in 0 iterations and 0.08 seconds
Infeasible or unbounded model
Optimize a model with 9 rows, 11 columns and 20 nonzeros
Coefficient statistics:
  Matrix range     [5e-02, 1e+00]
  Objective range  [2e+01, 1e+02]
  Bounds range     [0e+00, 0e+00]
  RHS range        [1e+00, 1e+00]
Presolve removed 2 rows and 2 columns
Presolve time: 0.07s

Solved in 0 iterations and 0.08 seconds
Infeasible or unbounded model
Optimize a model with 3 rows, 11 columns and 8 nonzeros
Coefficient statistics:
  Matrix range     [5e-02, 1e+00]
  Objective range  [5e+00, 5e+01]
  Bounds range     [0e+00, 0e+00]
  RHS range        [1e+00, 1e+00]
Presolve removed 3 rows and 11 columns
Presolve time: 0.21s
Presolve: All rows and columns removed
Iteration    Objective       Primal Inf.    Dual Inf.      Time
       0    3.7073171e+02   0.000000e+00   0.000000e+00      0s

Solved in 0 iterations and 0.40 seconds
Optimal objective  3.707317073e+02
Optimize a model with 3 rows, 6 columns and 8 nonzeros
Coefficient statistics:
  Matrix range     [5e-02, 1e+00]
  Objective range  [5e+00, 5e+01]
  Bounds range     [0e+00, 0e+00]
  RHS range        [1e+00, 1e+00]
Presolve removed 3 rows and 6 columns
Presolve time: 0.07s
Presolve: All rows and columns removed
Iteration    Objective       Primal Inf.    Dual Inf.      Time
       0    3.7073171e+02   0.000000e+00   0.000000e+00      0s

Solved in 0 iterations and 0.11 seconds
Optimal objective  3.707317073e+02
Optimize a model with 9 rows, 11 columns and 20 nonzeros
Coefficient statistics:
  Matrix range     [5e-02, 1e+00]
  Objective range  [5e+00, 5e+01]
  Bounds range     [0e+00, 0e+00]
  RHS range        [1e+00, 1e+00]
Presolve removed 6 rows and 4 columns
Presolve time: 0.07s

Solved in 0 iterations and 0.08 seconds
Infeasible or unbounded model
Optimize a model with 9 rows, 11 columns and 20 nonzeros
Coefficient statistics:
  Matrix range     [5e-02, 1e+00]
  Objective range  [5e+00, 5e+01]
  Bounds range     [0e+00, 0e+00]
  RHS range        [1e+00, 1e+00]
Presolve removed 8 rows and 8 columns
Presolve time: 0.07s

Solved in 0 iterations and 0.08 seconds
Infeasible or unbounded model
Optimize a model with 9 rows, 11 columns and 20 nonzeros
Coefficient statistics:
  Matrix range     [5e-02, 1e+00]
  Objective range  [1e+01, 3e+01]
  Bounds range     [0e+00, 0e+00]
  RHS range        [1e+00, 1e+00]
Presolve removed 0 rows and 1 columns
Presolve time: 0.07s

Solved in 0 iterations and 0.08 seconds
Infeasible or unbounded model
Optimize a model with 9 rows, 11 columns and 20 nonzeros
Coefficient statistics:
  Matrix range     [5e-02, 1e+00]
  Objective range  [1e+01, 2e+01]
  Bounds range     [0e+00, 0e+00]
  RHS range        [1e+00, 1e+00]
Presolve removed 0 rows and 1 columns
Presolve time: 0.07s

Solved in 0 iterations and 0.08 seconds
Infeasible or unbounded model
Optimize a model with 9 rows, 11 columns and 20 nonzeros
Coefficient statistics:
  Matrix range     [5e-02, 1e+00]
  Objective range  [1e+01, 2e+02]
  Bounds range     [0e+00, 0e+00]
  RHS range        [1e+00, 1e+00]
Presolve removed 0 rows and 1 columns
Presolve time: 0.07s

Solved in 0 iterations and 0.08 seconds
Infeasible or unbounded model
Optimize a model with 9 rows, 11 columns and 20 nonzeros
Coefficient statistics:
  Matrix range     [5e-02, 1e+00]
  Objective range  [1e+01, 3e+01]
  Bounds range     [0e+00, 0e+00]
  RHS range        [1e+00, 1e+00]
Presolve removed 0 rows and 1 columns
Presolve time: 0.07s

Solved in 0 iterations and 0.08 seconds
Infeasible or unbounded model
Optimize a model with 9 rows, 11 columns and 20 nonzeros
Coefficient statistics:
  Matrix range     [5e-02, 1e+00]
  Objective range  [1e+01, 5e+01]
  Bounds range     [0e+00, 0e+00]
  RHS range        [1e+00, 1e+00]
Presolve removed 0 rows and 1 columns
Presolve time: 0.07s

Solved in 0 iterations and 0.08 seconds
Infeasible or unbounded model
Optimize a model with 9 rows, 11 columns and 20 nonzeros
Coefficient statistics:
  Matrix range     [5e-02, 1e+00]
  Objective range  [1e+01, 3e+01]
  Bounds range     [0e+00, 0e+00]
  RHS range        [1e+00, 1e+00]
Presolve removed 0 rows and 1 columns
Presolve time: 0.07s

Solved in 0 iterations and 0.08 seconds
Infeasible or unbounded model
Optimize a model with 9 rows, 11 columns and 20 nonzeros
Coefficient statistics:
  Matrix range     [5e-02, 1e+00]
  Objective range  [1e+01, 3e+01]
  Bounds range     [0e+00, 0e+00]
  RHS range        [1e+00, 1e+00]
Presolve removed 1 rows and 1 columns
Presolve time: 0.07s

Solved in 0 iterations and 0.08 seconds
Infeasible or unbounded model
Optimize a model with 9 rows, 11 columns and 20 nonzeros
Coefficient statistics:
  Matrix range     [5e-02, 1e+00]
  Objective range  [1e+01, 3e+01]
  Bounds range     [0e+00, 0e+00]
  RHS range        [1e+00, 1e+00]
Presolve removed 1 rows and 1 columns
Presolve time: 0.07s

Solved in 0 iterations and 0.08 seconds
Infeasible or unbounded model
Optimize a model with 9 rows, 11 columns and 20 nonzeros
Coefficient statistics:
  Matrix range     [5e-02, 1e+00]
  Objective range  [1e+01, 2e+01]
  Bounds range     [0e+00, 0e+00]
  RHS range        [1e+00, 1e+00]
Presolve removed 1 rows and 1 columns
Presolve time: 0.07s

Solved in 0 iterations and 0.08 seconds
Infeasible or unbounded model
Optimize a model with 9 rows, 11 columns and 20 nonzeros
Coefficient statistics:
  Matrix range     [5e-02, 1e+00]
  Objective range  [1e+01, 2e+01]
  Bounds range     [0e+00, 0e+00]
  RHS range        [1e+00, 1e+00]
Presolve removed 1 rows and 1 columns
Presolve time: 0.07s

Solved in 0 iterations and 0.08 seconds
Infeasible or unbounded model
Optimize a model with 9 rows, 11 columns and 20 nonzeros
Coefficient statistics:
  Matrix range     [5e-02, 1e+00]
  Objective range  [1e+01, 3e+01]
  Bounds range     [0e+00, 0e+00]
  RHS range        [1e+00, 1e+00]
Presolve removed 0 rows and 1 columns
Presolve time: 0.07s

Solved in 0 iterations and 0.08 seconds
Infeasible or unbounded model
Optimize a model with 9 rows, 19 columns and 28 nonzeros
Coefficient statistics:
  Matrix range     [5e-02, 1e+00]
  Objective range  [1e+00, 3e+01]
  Bounds range     [0e+00, 0e+00]
  RHS range        [1e+00, 1e+00]
Presolve removed 1 rows and 1 columns
Presolve time: 0.07s

Solved in 0 iterations and 0.08 seconds
Infeasible or unbounded model
Optimize a model with 9 rows, 19 columns and 28 nonzeros
Coefficient statistics:
  Matrix range     [5e-02, 1e+00]
  Objective range  [1e+00, 2e+01]
  Bounds range     [0e+00, 0e+00]
  RHS range        [1e+00, 1e+00]
Presolve removed 1 rows and 1 columns
Presolve time: 0.07s

Solved in 0 iterations and 0.08 seconds
Infeasible or unbounded model
Optimize a model with 9 rows, 19 columns and 28 nonzeros
Coefficient statistics:
  Matrix range     [5e-02, 1e+00]
  Objective range  [1e+00, 2e+01]
  Bounds range     [0e+00, 0e+00]
  RHS range        [1e+00, 1e+00]
Presolve removed 1 rows and 1 columns
Presolve time: 0.08s

Solved in 0 iterations and 0.09 seconds
Infeasible or unbounded model
Optimize a model with 9 rows, 19 columns and 28 nonzeros
Coefficient statistics:
  Matrix range     [5e-02, 1e+00]
  Objective range  [1e+00, 5e+01]
  Bounds range     [0e+00, 0e+00]
  RHS range        [1e+00, 1e+00]
Presolve removed 1 rows and 1 columns
Presolve time: 0.07s

Solved in 0 iterations and 0.08 seconds
Infeasible or unbounded model
Optimize a model with 9 rows, 19 columns and 28 nonzeros
Coefficient statistics:
  Matrix range     [5e-02, 1e+00]
  Objective range  [1e+00, 2e+01]
  Bounds range     [0e+00, 0e+00]
  RHS range        [1e+00, 1e+00]
Presolve removed 0 rows and 1 columns
Presolve time: 0.07s

Solved in 0 iterations and 0.08 seconds
Infeasible or unbounded model
Optimize a model with 9 rows, 19 columns and 28 nonzeros
Coefficient statistics:
  Matrix range     [5e-02, 1e+00]
  Objective range  [1e+01, 2e+01]
  Bounds range     [0e+00, 0e+00]
  RHS range        [1e+00, 1e+00]
Presolve removed 1 rows and 1 columns
Presolve time: 0.07s

Solved in 0 iterations and 0.08 seconds
Infeasible or unbounded model
Optimize a model with 9 rows, 19 columns and 28 nonzeros
Coefficient statistics:
  Matrix range     [5e-02, 1e+00]
  Objective range  [1e+01, 2e+01]
  Bounds range     [0e+00, 0e+00]
  RHS range        [1e+00, 1e+00]
Presolve removed 0 rows and 1 columns
Presolve time: 0.07s

Solved in 0 iterations and 0.08 seconds
Infeasible or unbounded model
Optimize a model with 9 rows, 19 columns and 28 nonzeros
Coefficient statistics:
  Matrix range     [5e-02, 1e+00]
  Objective range  [1e+00, 2e+01]
  Bounds range     [0e+00, 0e+00]
  RHS range        [1e+00, 1e+00]
Presolve removed 5 rows and 11 columns
Presolve time: 0.10s

Solved in 0 iterations and 0.11 seconds
Infeasible or unbounded model
Optimize a model with 9 rows, 19 columns and 28 nonzeros
Coefficient statistics:
  Matrix range     [5e-02, 1e+00]
  Objective range  [1e+00, 2e+01]
  Bounds range     [0e+00, 0e+00]
  RHS range        [1e+00, 1e+00]
Presolve removed 0 rows and 1 columns
Presolve time: 0.09s

Solved in 0 iterations and 0.10 seconds
Infeasible or unbounded model
Optimize a model with 9 rows, 19 columns and 28 nonzeros
Coefficient statistics:
  Matrix range     [5e-02, 1e+00]
  Objective range  [1e+00, 2e+01]
  Bounds range     [0e+00, 0e+00]
  RHS range        [1e+00, 1e+00]
Presolve removed 0 rows and 1 columns
Presolve time: 0.07s

Solved in 0 iterations and 0.08 seconds
Infeasible or unbounded model
Optimize a model with 9 rows, 19 columns and 28 nonzeros
Coefficient statistics:
  Matrix range     [5e-02, 1e+00]
  Objective range  [1e+00, 2e+01]
  Bounds range     [0e+00, 0e+00]
  RHS range        [1e+00, 1e+00]
Presolve removed 1 rows and 1 columns
Presolve time: 0.07s

Solved in 0 iterations and 0.08 seconds
Infeasible or unbounded model
Optimize a model with 9 rows, 7 columns and 19 nonzeros
Coefficient statistics:
  Matrix range     [5e-02, 5e+01]
  Objective range  [1e+00, 1e+00]
  Bounds range     [0e+00, 0e+00]
  RHS range        [1e+00, 1e+00]
Presolve removed 9 rows and 7 columns
Presolve time: 0.07s
Presolve: All rows and columns removed
Iteration    Objective       Primal Inf.    Dual Inf.      Time
       0   -0.0000000e+00   0.000000e+00   0.000000e+00      0s

Solved in 0 iterations and 0.11 seconds
Optimal objective -0.000000000e+00
Warning: linear constraint 3 and linear constraint 9 have the same name "C1[0]"
Optimize a model with 22 rows, 7 columns and 19 nonzeros
Coefficient statistics:
  Matrix range     [5e-02, 5e+01]
  Objective range  [1e+00, 1e+00]
  Bounds range     [0e+00, 0e+00]
  RHS range        [1e+00, 4e+01]
Presolve removed 3 rows and 0 columns
Presolve time: 0.07s

Solved in 0 iterations and 0.08 seconds
Infeasible or unbounded model
Optimize a model with 22 rows, 7 columns and 19 nonzeros
Coefficient statistics:
  Matrix range     [5e-02, 5e+01]
  Objective range  [1e+00, 1e+00]
  Bounds range     [0e+00, 0e+00]
  RHS range        [1e+00, 4e+01]
Presolve removed 3 rows and 0 columns
Presolve time: 0.07s

Solved in 0 iterations and 0.08 seconds
Infeasible or unbounded model
Optimize a model with 9 rows, 7 columns and 19 nonzeros
Coefficient statistics:
  Matrix range     [5e-02, 5e+01]
  Objective range  [1e+00, 1e+00]
  Bounds range     [0e+00, 0e+00]
  RHS range        [1e+00, 1e+00]
Presolve removed 9 rows and 7 columns
Presolve time: 0.07s
Presolve: All rows and columns removed
Iteration    Objective       Primal Inf.    Dual Inf.      Time
       0   -0.0000000e+00   0.000000e+00   0.000000e+00      0s

Solved in 0 iterations and 0.11 seconds
Optimal objective -0.000000000e+00
Optimize a model with 3 rows, 6 columns and 8 nonzeros
Coefficient statistics:
  Matrix range     [5e-02, 1e+00]
  Objective range  [5e+00, 1e+01]
  Bounds range     [0e+00, 0e+00]
  RHS range        [1e+00, 1e+00]
Presolve removed 2 rows and 2 columns
Presolve time: 0.11s

Solved in 0 iterations and 0.12 seconds
Infeasible or unbounded model
Warning: linear constraint 1 and quadratic constraint 5 have the same name "C1[0]"
Optimize a model with 5 rows, 5 columns and 6 nonzeros
Model has 2 quadratic constraints
Coefficient statistics:
  Matrix range     [5e-02, 1e+00]
  QMatrix range    [1e+00, 1e+00]
  QLMatrix range   [1e+00, 1e+00]
  Objective range  [1e+00, 1e+00]
  Bounds range     [0e+00, 0e+00]
  RHS range        [1e+00, 1e+01]
Presolve time: 0.17s

Barrier solved model in 0 iterations and 0.19 seconds
Model is infeasible or unbounded
Optimize a model with 5 rows, 5 columns and 6 nonzeros
Model has 2 quadratic constraints
Coefficient statistics:
  Matrix range     [5e-02, 1e+00]
  QMatrix range    [1e+00, 1e+00]
  QLMatrix range   [1e+00, 1e+00]
  Objective range  [1e+00, 1e+00]
  Bounds range     [0e+00, 0e+00]
  RHS range        [1e+00, 1e+01]
Presolve time: 0.09s

Barrier solved model in 0 iterations and 0.11 seconds
Model is infeasible or unbounded
Optimize a model with 5 rows, 5 columns and 6 nonzeros
Model has 2 quadratic constraints
Coefficient statistics:
  Matrix range     [5e-02, 1e+00]
  QMatrix range    [1e+00, 1e+00]
  QLMatrix range   [1e+00, 1e+00]
  Objective range  [1e+00, 1e+00]
  Bounds range     [0e+00, 0e+00]
  RHS range        [1e+00, 2e+01]
Presolve time: 0.09s

Barrier solved model in 0 iterations and 0.11 seconds
Model is infeasible or unbounded
Optimize a model with 5 rows, 5 columns and 6 nonzeros
Model has 2 quadratic constraints
Coefficient statistics:
  Matrix range     [5e-02, 1e+00]
  QMatrix range    [1e+00, 1e+00]
  QLMatrix range   [1e+00, 1e+00]
  Objective range  [1e+00, 1e+00]
  Bounds range     [0e+00, 0e+00]
  RHS range        [1e+00, 1e+01]
Presolve removed 4 rows and 1 columns
Optimize a model with 5 rows, 5 columns and 6 nonzeros
Model has 2 quadratic constraints
Coefficient statistics:
  Matrix range     [5e-02, 1e+00]
  QMatrix range    [1e+00, 1e+00]
  QLMatrix range   [1e+00, 1e+00]
  Objective range  [1e+00, 1e+00]
  Bounds range     [0e+00, 0e+00]
  RHS range        [1e+00, 1e+01]
Presolve removed 4 rows and 0 columns
Optimize a model with 5 rows, 5 columns and 6 nonzeros
Model has 2 quadratic constraints
Coefficient statistics:
  Matrix range     [5e-02, 1e+00]
  QMatrix range    [1e+00, 1e+00]
  QLMatrix range   [1e+00, 1e+00]
  Objective range  [1e+00, 1e+00]
  Bounds range     [0e+00, 0e+00]
  RHS range        [1e+00, 1e+01]
Presolve removed 4 rows and 0 columns
Optimize a model with 5 rows, 5 columns and 6 nonzeros
Model has 2 quadratic constraints
Coefficient statistics:
  Matrix range     [5e-02, 1e+00]
  QMatrix range    [1e+00, 1e+00]
  QLMatrix range   [1e+00, 1e+00]
  Objective range  [1e+00, 1e+00]
  Bounds range     [0e+00, 0e+00]
  RHS range        [1e+00, 1e+01]
Presolve removed 4 rows and 0 columns
Optimize a model with 3 rows, 6 columns and 8 nonzeros
Coefficient statistics:
  Matrix range     [5e-02, 1e+00]
  Objective range  [1e+00, 1e+01]
  Bounds range     [0e+00, 0e+00]
  RHS range        [1e+00, 1e+00]
Presolve removed 2 rows and 2 columns
Presolve time: 0.07s

Solved in 0 iterations and 0.08 seconds
Infeasible or unbounded model
Optimize a model with 3 rows, 6 columns and 8 nonzeros
Coefficient statistics:
  Matrix range     [5e-02, 1e+00]
  Objective range  [5e+00, 5e+01]
  Bounds range     [0e+00, 0e+00]
  RHS range        [1e+00, 1e+00]
Presolve removed 3 rows and 6 columns
Presolve time: 0.10s
Presolve: All rows and columns removed
Iteration    Objective       Primal Inf.    Dual Inf.      Time
       0    3.7073171e+02   0.000000e+00   0.000000e+00      0s

Solved in 0 iterations and 0.23 seconds
Optimal objective  3.707317073e+02
Optimize a model with 9 rows, 7 columns and 19 nonzeros
Coefficient statistics:
  Matrix range     [5e-02, 5e+01]
  Objective range  [1e+00, 1e+00]
  Bounds range     [0e+00, 0e+00]
  RHS range        [1e+00, 1e+00]
Presolve removed 9 rows and 7 columns
Presolve time: 0.16s
Presolve: All rows and columns removed
Iteration    Objective       Primal Inf.    Dual Inf.      Time
       0   -0.0000000e+00   0.000000e+00   0.000000e+00      0s

Solved in 0 iterations and 0.34 seconds
Optimal objective -0.000000000e+00
Optimize a model with 3 rows, 6 columns and 8 nonzeros
Coefficient statistics:
  Matrix range     [5e-02, 1e+00]
  Objective range  [1e+00, 1e+01]
  Bounds range     [0e+00, 0e+00]
  RHS range        [1e+00, 1e+00]
Presolve removed 2 rows and 2 columns
Presolve time: 0.08s

Solved in 0 iterations and 0.09 seconds
Infeasible or unbounded model
Optimize a model with 3 rows, 6 columns and 8 nonzeros
Coefficient statistics:
  Matrix range     [5e-02, 1e+00]
  Objective range  [1e+00, 1e+01]
  Bounds range     [0e+00, 0e+00]
  RHS range        [1e+00, 1e+00]
Presolve removed 2 rows and 2 columns
Presolve time: 0.07s

Solved in 0 iterations and 0.08 seconds
Infeasible or unbounded model
Optimize a model with 3 rows, 6 columns and 8 nonzeros
Coefficient statistics:
  Matrix range     [5e-02, 1e+00]
  Objective range  [1e+00, 1e+01]
  Bounds range     [0e+00, 0e+00]
  RHS range        [1e+00, 1e+00]
Presolve removed 2 rows and 2 columns
Presolve time: 0.07s

Solved in 0 iterations and 0.08 seconds
Infeasible or unbounded model
Optimize a model with 7 rows, 6 columns and 12 nonzeros
Coefficient statistics:
  Matrix range     [5e-02, 1e+00]
  Objective range  [1e+00, 1e+01]
  Bounds range     [0e+00, 0e+00]
  RHS range        [1e+00, 1e+00]
Presolve removed 6 rows and 2 columns
Presolve time: 0.07s

Solved in 0 iterations and 0.08 seconds
Infeasible or unbounded model

Gurobi 8.1.1 (linux64, Python) logging started Thu 09 May 2019 01:50:32 PM EDT

Academic license - for non-commercial use only
Optimize a model with 7 rows, 6 columns and 12 nonzeros
Coefficient statistics:
  Matrix range     [5e-02, 1e+00]
  Objective range  [1e+00, 1e+01]
  Bounds range     [0e+00, 0e+00]
  RHS range        [1e+00, 1e+00]
Presolve removed 6 rows and 2 columns
Presolve time: 0.07s

Solved in 0 iterations and 0.08 seconds
Infeasible or unbounded model
Optimize a model with 3 rows, 6 columns and 8 nonzeros
Coefficient statistics:
  Matrix range     [5e-02, 1e+00]
  Objective range  [5e+00, 5e+01]
  Bounds range     [0e+00, 0e+00]
  RHS range        [1e+00, 1e+00]
Presolve removed 3 rows and 6 columns
Presolve time: 0.07s
Presolve: All rows and columns removed
Iteration    Objective       Primal Inf.    Dual Inf.      Time
       0    3.7073171e+02   0.000000e+00   0.000000e+00      0s

Solved in 0 iterations and 0.11 seconds
Optimal objective  3.707317073e+02
